17	4
13	15	15	14	
0	0	0	0	0	3	2	3	4	
8	10	3	2	10	3	5	13	17	
4	7	8	0	1	3	6	7	8	
2	1	8	10	0	2	5	15	
5	5	0	3	7	2	11	17	
225	4	8	0	2	3	10	15	17	
175	4	3	0	8	2	10	12	
175	8	10	4	8	2	9	17	
175	0	2	0	0	3	14	17	17	
150	7	0	3	0	3	11	16	17	
200	1	8	0	5	1	17	
250	1	7	0	8	3	13	17	17	
5	7	2	0	0	1	17	
3	1	7	10	3	3	16	17	17	
4	0	9	3	7	1	17	
10	4	2	0	3	1	17	
0	0	0	0	0	0	
